CMD:
./solvers/bin/cadical --plain --no-reduce -t 1600 ./data/cnfs//pdtpmsns2/pdtpmsns2.29.cnf

c --- [ banner ] -------------------------------------------------------------
c 
c CaDiCaL SAT Solver
c Copyright (c) 2016-2024
c A. Biere, M. Fleury, N. Froleyks, K. Fazekas, F. Pollitt, T. Faller
c JKU Linz, University of Freiburg, TU Wien
c 
c Version 2.1.3 5296d3d2a9bf48c154ab2acb5e44625776d821bf
c g++ (Gentoo 12.3.1_p20230526 p2) 12.3.1 20230526 -Wall -Wextra -O3 -DNDEBUG
c Sat Aug 9 07:26:21 PDT 2025 Linux cedar2.int.cedar.computecanada.ca 5.14.0-362.24.2.el9_3.x86_64 x86_64
c 
c --- [ limit ] --------------------------------------------------------------
c 
c setting time limit to 1600 seconds real time (due to '-t 1600')
c 
c --- [ parsing input ] ------------------------------------------------------
c 
c reading DIMACS file from './data/cnfs//pdtpmsns2/pdtpmsns2.29.cnf'
c opening file to read './data/cnfs//pdtpmsns2/pdtpmsns2.29.cnf'
c found 'p cnf 57004 168814' header
c parsed 168814 clauses in 0.03 seconds process time
c 
c --- [ options ] ------------------------------------------------------------
c 
c   --compact=false                (different from default 'true')
c   --decompose=false              (different from default 'true')
c   --deduplicate=false            (different from default 'true')
c   --elim=false                   (different from default 'true')
c   --probe=false                  (different from default 'true')
c   --reduce=false                 (different from default 'true')
c   --subsume=false                (different from default 'true')
c   --ternary=false                (different from default 'true')
c   --transred=false               (different from default 'true')
c   --vivify=false                 (different from default 'true')
c 
c --- [ solving ] ------------------------------------------------------------
c 
c time measured in process time since initialization
c 
c  seconds  reductions  redundant  irredundant
c         MB    restarts       trail       variables
c          level   conflicts       glue         remaining
c 
c *  0.03 29  0 0   0    0    0  0% 0 163981 53113 93%
c {  0.04 30  0 0   0    0    0  0% 0 163981 53113 93%
c i  0.07 30 248 0   0  418  395 44% 2 163981 53111 93%
c }  0.13 31 137 0 118 1000  947 32% 2 163981 53111 93%
c [  0.13 31  0 0 118 1000  947  0% 0 163981 53111 93%
c O  0.14 31 56 0 118 1002  949 26% 2 163981 53111 93%
c i  0.15 31 137 0 118 1070 1012 46% 3 163981 53109 93%
c i  0.15 31 142 0 118 1072 1013 47% 3 163981 53107 93%
c i  0.17 31 224 0 118 1459 1369 68% 5 163981 53104 93%
c i  0.18 31 221 0 118 1580 1480 66% 5 163981 53101 93%
c i  0.23 31 141 0 119 2211 2049 53% 5 163981 53099 93%
c i  0.23 31 141 0 119 2217 2054 53% 5 163981 53097 93%
c i  0.23 31 141 0 119 2221 2056 53% 5 163981 53095 93%
c i  0.23 31 140 0 119 2227 2061 53% 5 163981 53093 93%
c i  0.24 31 135 0 119 2365 2193 51% 5 163981 53083 93%
c i  0.26 31 126 0 119 2579 2391 49% 5 163981 53067 93%
c ]  0.29 31 118 0 119 3002 2800 55% 5 163981 53067 93%
c {  0.29 31 137 0 119 3002 2800 32% 2 163981 53067 93%
c F  0.30 31 137 0 120 3003 2801 32% 2 163981 53067 93%
c i  0.31 31 130 0 140 3081 2870 31% 2 163981 53065 93%
c 
c  seconds   reductions  redundant  irredundant
c         MB     restarts       trail       variables
c           level   conflicts       glue         remaining
c 
c i  0.37 31 102 0 240 3564 3326 29% 3 163981 53061 93%
c i  0.39 31 97 0 271 3768 3513 28% 3 163981 53059 93%
c i  0.39 31 97 0 272 3771 3515 28% 3 163981 53057 93%
c i  0.41 31 93 0 300 3881 3616 28% 3 163981 53055 93%
c i  0.41 31 92 0 308 3912 3644 28% 3 163981 53053 93%
c i  0.42 31 92 0 316 3941 3670 28% 3 163981 53051 93%
c i  0.45 31 84 0 363 4214 3921 27% 3 163981 53049 93%
c i  0.46 31 83 0 378 4311 4014 27% 3 163981 53036 93%
c i  0.48 31 80 0 395 4473 4157 28% 3 163981 53034 93%
c i  0.49 32 79 0 404 4535 4217 28% 3 163981 53021 93%
c i  0.49 32 79 0 404 4540 4220 28% 3 163981 53017 93%
c i  0.50 32 78 0 415 4671 4339 28% 3 163981 52968 93%
c i  0.51 32 77 0 421 4707 4374 28% 3 163981 52919 93%
c i  0.52 32 76 0 436 4769 4432 28% 3 163981 52917 93%
c i  0.54 32 75 0 452 4852 4509 28% 3 163981 52915 93%
c i  0.54 32 75 0 454 4890 4545 28% 3 163981 52912 93%
c i  0.54 32 75 0 454 4905 4558 28% 3 163981 52910 93%
c i  0.56 32 75 0 465 4996 4641 28% 3 163981 52908 93%
c i  0.56 32 75 0 465 4997 4641 28% 3 163981 52906 93%
c i  0.56 32 75 0 465 5001 4644 28% 3 163981 52904 93%
c 
c  seconds  reductions  redundant  irredundant
c         MB    restarts       trail       variables
c          level   conflicts       glue         remaining
c 
c i  0.59 32 73 0 498 5249 4867 28% 3 163981 52902 93%
c i  0.62 32 72 0 529 5365 4977 28% 3 163981 52900 93%
c i  0.63 32 71 0 549 5444 5054 28% 3 163981 52898 93%
c i  0.64 32 70 0 579 5590 5191 28% 3 163981 52896 93%
... skipped 284 lines ...
c i 125.15 119 32 0 24527 312853 282901 34% 8 154523 51772 91%
c i 125.69 120 32 0 24629 314227 284080 34% 8 154523 51770 91%
c i 127.10 120 31 0 24816 317391 286912 33% 8 154523 51767 91%
c i 128.62 120 31 0 25106 319815 289065 33% 8 154523 51765 91%
c i 128.62 120 31 0 25106 319816 289065 33% 8 154523 51763 91%
c i 129.24 121 31 0 25233 320649 289835 33% 8 154523 51762 91%
c W 131.53 136 30 0 25622 325048 284985 33% 8 153162 51762 91%
c 
c  seconds    reductions       redundant   irredundant
c           MB     restarts            trail       variables
c            level      conflicts          glue         remaining
c 
c i 137.55 136 28 0 26449 338287 296047 33% 8 153162 51727 91%
c i 141.03 137 27 0 27092 346332 302864 33% 8 153162 51725 91%
c # 143.00 137 27 0 27438 351049 306568 33% 8 153162 51725 91%
c i 143.22 137 27 0 27490 351749 307130 33% 8 153162 51707 91%
c i 143.56 137 27 0 27539 352413 307622 33% 8 153162 51583 90%
c i 143.78 137 26 0 27602 352911 308030 33% 8 153162 51578 90%
c i 143.83 137 26 0 27602 353043 308102 33% 8 153162 51459 90%
c i 144.07 137 26 0 27658 353601 308590 33% 8 153162 51457 90%
c i 145.23 137 26 0 27957 357370 311862 33% 8 153162 51456 90%
c i 145.23 137 26 0 27957 357371 311862 33% 8 153162 51454 90%
c i 145.32 137 26 0 27957 357814 312197 33% 8 153162 51444 90%
c i 147.16 137 25 0 28385 364558 317424 33% 8 153162 51326 90%
c i 147.18 137 25 0 28385 364611 317460 33% 8 153162 51228 90%
c i 147.36 137 25 0 28397 365542 318248 33% 8 153162 51225 90%
c i 147.69 137 25 0 28446 366796 319231 33% 8 153162 51224 90%
c i 148.23 137 25 0 28486 369029 321074 33% 8 153162 51099 90%
c i 148.49 137 24 0 28506 370225 322026 32% 8 153162 47920 84%
c i 148.58 137 24 0 28508 370785 322386 32% 8 153162 47012 82%
c i 148.65 137 24 0 28508 371419 322895 32% 8 153162 44790 79%
c i 148.65 137 24 0 28508 371429 322899 32% 8 153162 43930 77%
c 
c  seconds    reductions       redundant   irredundant
c           MB     restarts            trail       variables
c            level      conflicts          glue         remaining
c 
c i 148.68 137 24 0 28508 371717 323086 32% 8 153162 43928 77%
c i 148.68 137 24 0 28508 371772 323103 32% 8 153162 42997 75%
c i 148.70 137 24 0 28508 371897 323192 32% 8 153162 42967 75%
c i 148.70 137 24 0 28508 371966 323221 32% 8 153162 42067 74%
c i 148.71 137 24 0 28508 372078 323281 32% 8 153162 41729 73%
c i 148.71 137 24 0 28508 372080 323282 32% 8 153162 41277 72%
c i 148.71 137 24 0 28508 372083 323284 32% 8 153162 41245 72%
c } 148.71 137 24 0 28508 372085 323284 32% 8 153162 38461 67%
c 0 148.71 137 24 0 28508 372085 323284 32% 8 153162 38461 67%
c 
c --- [ result ] -------------------------------------------------------------
c 
s UNSATISFIABLE
c 
c --- [ run-time profiling ] -------------------------------------------------
c 
c process time taken by individual solving procedures
c (percentage relative to process time for solving)
c 
c       148.69  100.00% search
c       102.26   68.78% unstable
c        45.52   30.61% stable
c         0.89    0.60% walk
c         0.03    0.02% parse
c         0.02    0.01% lucky
c         0.00    0.00% simplify
c   =================================
c       148.69   99.98% solve
c 
c last line shows process time for solving
c (percentage relative to total process time)
c 
c --- [ statistics ] ---------------------------------------------------------
c 
c chronological:            123905        33.30 %  of conflicts
c conflicts:                372085      2502.48    per second
c decisions:               1558221     10479.91    per second
c fixed:                     18543        32.53 %  of all variables
c learned:                  361511        97.16 %  per conflict
c learned_lits:           24498495       100.00 %  learned literals
c minimized:                     0         0.00 %  learned literals
c shrunken:                6109150        24.94 %  learned literals
c minishrunken:            6143027        25.08 %  learned literals
c otfs:                       1384         0.37 %  of conflict
c propagations:         1212653208         8.16 M  per second
c rephased:                     26     14310.96    interval
c restarts:                  28508        13.05    interval
c stabilizing:                   4        45.69 %  of conflicts
c subsumed:                  28364         5.40 %  of all clauses
c strengthened:               1352         0.26 %  of all clauses
c walked:                        7     53155.00    interval
c 
c seconds are measured in process time for solving
c 
c --- [ resources ] ----------------------------------------------------------
c 
c total process time since initialization:       148.71    seconds
c total real time since initialization:          149.49    seconds
c maximum resident set size of process:          171.00    MB
c 
c --- [ shutting down ] ------------------------------------------------------
c 
c exit 20
